NAME : XML100_1234_25
DIMENSION : 101
NB_CLUSTERS : 6
CLUSTERING_ALG : DBSCAN
CLUSTERING_PARAMS : eps(59), minSamples(3)
CLUSTERS
1 0
2 1 4 6 7 8 9 10 13 16 19 21 23 26 27 28 31 33 35 38 41 45 48 49 50 51 56 59 60 64 65 66 67 68 69 70 73 76 77 79 81 83 85 87 88 89 90 92 93 94 99
3 2 5 11 12 14 15 18 20 22 25 36 37 39 42 44 53 54 55 57 58 62 63 71 72 74 75 78 80 82 84 86 91 95 96 98 100
4 17 24 34 43 46 47 61 97
5 3 32 40
6 29 30 52
EOF